(declare-const in6 Int)
(declare-const in5 Int)
(declare-const in8 Int)
(declare-const in7 Int)
(declare-const in11 Int)
(declare-const in9 Int)
(declare-const in10 Int)
(declare-const in0 Int)
(declare-const in2 Int)
(declare-const in1 Int)
(declare-const in4 Int)
(declare-const in3 Int)

(assert (and (and (and (and (and (and (and (and (and (and (and (and (and (and (and (and (and (and (and (and (and (and (and  ( <=  in0 in1)  ( <=  in0 in2))  ( <=  in1 in2))  ( <=  in3 in4))  ( <=  in3 in5))  ( <=  in4 in5))  ( <=  in0 in3))  ( <=  in1 in3))  ( <=  in2 in3))  ( <=  in6 in7))  ( <=  in6 in8))  ( <=  in7 in8))  ( <=  in9 in10))  ( <=  in9 in11))  ( <=  in10 in11))  ( <=  in6 in9))  ( <=  in7 in9))  ( <=  in8 in9))  ( <=  in0 in6))  ( <=  in1 in6))  ( <=  in2 in6))  ( <=  in3 in6))  ( <=  in4 in6))  ( <=  in5 in6)))

(check-sat)
(get-model)